p tw 926 1771
1 412
1 413
1 540
1 541
1 748
1 749
1 851
1 852
2 867
2 868
3 882
3 883
4 365
4 366
5 582
5 583
6 571
6 572
7 869
7 870
8 667
8 668
9 118
9 437
9 438
9 550
9 551
9 692
9 755
9 756
10 342
10 343
10 562
10 563
10 706
10 707
10 767
10 768
11 792
11 793
12 426
12 427
12 510
12 511
12 707
12 708
12 778
12 779
13 819
13 820
13 873
13 874
14 835
14 836
14 892
14 893
15 446
15 447
15 900
15 901
16 343
16 344
16 511
16 512
16 708
16 709
16 779
16 780
17 607
17 608
18 344
18 345
18 576
18 577
19 470
19 471
20 606
20 607
21 888
21 889
22 394
22 395
22 519
22 520
22 719
22 720
22 831
22 832
23 358
23 359
23 559
23 560
23 764
23 765
24 669
24 670
25 431
25 432
26 439
26 440
26 890
26 891
27 364
27 365
27 803
27 804
27 918
27 919
28 663
28 664
29 647
29 648
30 625
30 626
31 340
31 341
32 487
32 488
33 362
33 363
33 802
33 803
34 876
34 877
35 404
35 405
35 690
35 691
35 736
35 737
36 645
36 646
37 603
37 604
38 363
38 364
39 388
39 389
40 621
40 622
41 908
41 909
42 860
42 861
43 633
43 634
44 646
44 647
45 878
45 879
46 666
46 667
47 409
47 410
48 463
48 464
49 875
49 876
50 898
50 899
51 497
51 498
51 845
51 846
52 907
52 908
53 346
53 347
54 862
54 863
55 581
55 582
56 631
56 632
57 407
57 408
57 549
57 550
57 740
57 741
57 754
57 755
58 496
58 497
58 684
58 685
59 455
59 456
59 913
59 914
60 903
60 904
61 347
61 348
62 142
62 689
63 585
63 586
64 341
64 342
64 509
64 510
64 705
64 706
64 777
64 778
65 617
65 618
66 639
66 640
67 348
67 349
68 471
68 472
69 134
69 413
69 414
69 923
70 435
70 436
70 887
70 888
71 438
71 439
71 548
71 549
71 753
71 754
72 915
72 916
73 337
73 338
73 770
73 771
74 444
74 445
74 524
74 525
74 724
74 725
74 794
74 795
75 678
75 679
76 885
76 886
77 424
77 425
77 865
77 866
78 584
78 585
79 874
79 875
80 782
80 783
81 500
81 501
82 609
82 610
83 393
83 394
84 101
84 433
84 434
84 563
84 768
85 610
85 611
86 587
86 588
87 462
87 463
88 447
88 448
88 728
88 729
89 683
89 684
90 457
90 458
91 578
91 579
92 597
92 598
93 661
93 662
94 836
94 837
94 893
94 894
95 894
95 895
96 577
96 578
97 479
97 480
97 826
97 827
98 377
98 378
99 679
99 680
100 287
100 450
100 451
100 544
100 733
100 734
101 449
101 450
101 563
101 768
102 672
102 673
103 349
103 350
104 619
104 620
105 906
105 907
106 458
106 459
106 620
106 621
107 472
107 473
107 558
107 559
107 704
107 705
107 763
107 764
108 687
108 688
109 596
109 597
110 494
110 495
110 676
110 677
111 400
111 401
111 526
111 527
111 727
111 728
111 839
111 840
112 682
112 683
113 588
113 589
114 681
114 682
115 883
115 884
116 686
116 687
117 629
117 630
118 225
118 476
118 477
118 692
118 926
119 651
119 652
120 614
120 615
121 430
121 431
121 557
121 558
121 761
121 762
121 784
121 785
122 637
122 638
122 864
122 865
123 385
123 386
123 513
123 514
123 711
123 712
123 820
123 821
124 474
124 475
124 640
124 641
124 868
124 869
125 361
125 362
125 534
125 535
125 551
125 552
125 741
125 742
125 756
125 757
125 801
125 802
126 419
126 420
127 635
127 636
128 612
128 613
129 564
129 565
130 615
130 616
130 904
130 905
131 469
131 470
131 812
131 813
131 857
131 858
132 466
132 467
132 806
132 807
132 920
132 921
133 902
133 903
134 166
134 414
134 415
134 541
134 750
134 852
134 853
134 923
135 460
135 461
135 804
135 805
135 919
135 920
136 456
136 457
136 533
136 534
136 742
136 743
136 800
136 801
137 567
137 568
138 566
138 567
139 490
139 491
139 901
139 902
140 608
140 609
141 670
141 671
142 689
143 905
143 906
144 475
144 476
144 822
144 823
145 884
145 885
146 372
146 373
147 498
147 499
147 743
147 744
147 916
147 917
148 421
148 422
148 505
148 506
148 552
148 553
148 697
148 698
148 757
148 758
148 774
148 775
149 352
149 353
149 561
149 562
149 593
149 594
149 716
149 717
149 766
149 767
150 392
150 393
150 655
150 656
151 677
151 678
152 429
152 430
153 422
153 423
153 507
153 508
153 699
153 700
153 776
153 777
154 642
154 643
155 664
155 665
156 569
156 570
157 624
157 625
158 796
158 797
159 488
159 489
160 574
160 575
161 591
161 592
162 398
162 399
163 565
163 566
164 378
164 379
164 554
164 555
164 759
164 760
165 847
165 848
166 251
166 416
166 417
166 541
166 750
166 853
167 665
167 666
168 387
168 388
168 649
168 650
169 369
169 370
170 415
170 416
171 489
171 490
172 453
172 454
172 735
172 736
172 912
172 913
173 680
173 681
174 445
174 446
175 626
175 627
176 921
176 922
177 638
177 639
177 866
177 867
178 659
178 660
179 590
179 591
180 632
180 633
181 657
181 658
182 350
182 351
182 516
182 517
182 713
182 714
182 783
182 784
183 434
183 435
184 468
184 469
184 811
184 812
185 380
185 381
185 816
185 817
186 481
186 482
186 714
186 715
186 827
186 828
187 353
187 354
187 788
187 789
188 381
188 382
188 702
188 703
189 336
189 337
189 502
189 503
189 693
189 694
189 769
189 770
190 491
190 492
191 452
191 453
191 911
191 912
192 384
192 385
192 818
192 819
193 368
193 369
193 537
193 538
193 622
193 623
193 746
193 747
193 807
193 808
194 600
194 601
195 379
195 380
195 508
195 509
195 701
195 702
195 815
195 816
196 787
196 788
196 891
196 892
197 448
197 449
197 528
197 529
197 730
197 731
197 797
197 798
198 825
198 826
199 909
199 910
200 423
200 424
201 650
201 651
202 339
202 340
202 504
202 505
202 696
202 697
202 772
202 773
203 773
203 774
203 858
203 859
204 425
204 426
205 354
205 355
205 523
205 524
205 723
205 724
205 790
205 791
206 575
206 576
206 870
206 871
207 837
207 838
208 879
208 880
209 579
209 580
210 401
210 402
210 556
210 557
210 726
210 727
210 762
210 763
211 389
211 390
212 338
212 339
212 503
212 504
212 695
212 696
212 771
212 772
213 357
213 358
213 525
213 526
213 725
213 726
213 795
213 796
214 634
214 635
215 411
215 412
215 538
215 539
215 747
215 748
215 849
215 850
216 492
216 493
216 673
216 674
217 856
217 857
218 382
218 383
218 641
218 642
218 817
218 818
219 872
219 873
220 601
220 602
221 652
221 653
222 417
222 418
223 863
223 864
224 408
224 409
224 535
224 536
224 744
224 745
224 846
224 847
225 926
226 440
226 441
226 789
226 790
227 436
227 437
227 521
227 522
227 547
227 548
227 721
227 722
227 752
227 753
227 786
227 787
228 359
228 360
228 530
228 531
228 731
228 732
228 798
228 799
229 568
229 569
230 360
230 361
230 737
230 738
231 809
231 810
232 613
232 614
233 671
233 672
234 482
234 483
234 517
234 518
234 717
234 718
234 829
234 830
235 432
235 433
235 589
235 590
236 464
236 465
237 881
237 882
238 917
238 918
239 391
239 392
240 861
240 862
241 599
241 600
242 375
242 376
242 630
242 631
243 594
243 595
244 383
244 384
244 644
244 645
244 871
244 872
245 648
245 649
246 636
246 637
247 396
247 397
248 461
248 462
248 536
248 537
248 543
248 544
248 745
248 746
248 805
248 806
249 833
249 834
250 399
250 400
250 838
250 839
250 897
250 898
251 258
251 501
251 853
252 486
252 487
253 427
253 428
253 512
253 513
253 709
253 710
253 780
253 781
254 623
254 624
255 366
255 367
256 580
256 581
257 373
257 374
257 810
257 811
258 501
258 539
258 540
258 749
258 750
258 850
258 851
259 345
259 346
259 514
259 515
259 710
259 711
259 781
259 782
260 611
260 612
261 573
261 574
262 406
262 407
262 914
262 915
263 570
263 571
264 583
264 584
265 418
265 419
265 694
265 695
265 854
265 855
266 922
266 923
267 441
267 442
267 895
267 896
268 656
268 657
269 355
269 356
270 910
270 911
271 386
271 387
271 821
271 822
272 662
272 663
273 924
273 925
274 660
274 661
275 442
275 443
276 483
276 484
276 518
276 519
276 718
276 719
276 830
276 831
277 371
277 372
278 604
278 605
279 477
279 478
279 515
279 516
279 712
279 713
279 823
279 824
280 467
280 468
280 627
280 628
281 775
281 776
282 643
282 644
283 572
283 573
284 370
284 371
284 808
284 809
285 485
285 486
285 522
285 523
285 722
285 723
285 834
285 835
286 791
286 792
287 473
287 474
287 544
287 703
287 704
288 403
288 404
288 545
288 546
288 734
288 735
289 397
289 398
289 889
289 890
290 374
290 375
290 506
290 507
290 698
290 699
290 814
290 815
291 668
291 669
292 465
292 466
292 555
292 556
292 760
292 761
293 499
293 500
293 685
293 686
294 842
294 843
295 395
295 396
295 886
295 887
296 813
296 814
297 478
297 479
297 877
297 878
298 451
298 452
299 598
299 599
300 428
300 429
301 480
301 481
301 715
301 716
302 484
302 485
302 520
302 521
302 720
302 721
302 832
302 833
303 658
303 659
304 602
304 603
305 454
305 455
305 531
305 532
305 738
305 739
305 799
305 800
306 410
306 411
306 848
306 849
307 618
307 619
308 420
308 421
309 605
309 606
310 674
310 675
311 616
311 617
312 880
312 881
313 493
313 494
313 529
313 530
313 675
313 676
313 732
313 733
313 841
313 842
314 654
314 655
315 828
315 829
316 443
316 444
317 586
317 587
318 402
318 403
318 527
318 528
318 560
318 561
318 729
318 730
318 765
318 766
318 840
318 841
319 405
319 406
320 859
320 860
321 390
321 391
321 824
321 825
322 376
322 377
322 553
322 554
322 691
322 692
322 700
322 701
322 758
322 759
322 925
322 926
323 356
323 357
323 793
323 794
323 899
323 900
324 459
324 460
325 653
325 654
326 688
326 689
327 855
327 856
328 546
328 547
328 751
328 752
329 351
329 352
329 592
329 593
329 785
329 786
330 495
330 496
330 532
330 533
330 542
330 543
330 739
330 740
330 843
330 844
331 628
331 629
332 367
332 368
333 896
333 897
334 844
334 845
335 595
335 596
336 337
337 338
338 339
339 340
340 341
341 342
342 343
343 344
344 345
345 346
346 347
347 348
348 349
349 350
350 351
351 352
352 353
353 354
354 355
355 356
356 357
357 358
358 359
359 360
360 361
361 362
362 363
363 364
364 365
365 366
366 367
367 368
368 369
369 370
370 371
371 372
372 373
373 374
374 375
375 376
376 377
377 378
378 379
379 380
380 381
381 382
382 383
383 384
384 385
385 386
386 387
387 388
388 389
389 390
390 391
391 392
392 393
393 394
394 395
395 396
396 397
397 398
398 399
399 400
400 401
401 402
402 403
403 404
404 405
405 406
406 407
407 408
408 409
409 410
410 411
411 412
412 413
413 414
414 415
415 416
416 417
417 418
418 419
419 420
420 421
421 422
422 423
423 424
424 425
425 426
426 427
427 428
428 429
429 430
430 431
431 432
432 433
433 434
434 435
435 436
436 437
437 438
438 439
439 440
440 441
441 442
442 443
443 444
444 445
445 446
446 447
447 448
448 449
449 450
450 451
451 452
452 453
453 454
454 455
455 456
456 457
457 458
458 459
459 460
460 461
461 462
462 463
463 464
464 465
465 466
466 467
467 468
468 469
469 470
470 471
471 472
472 473
473 474
474 475
475 476
476 477
477 478
478 479
479 480
480 481
481 482
482 483
483 484
484 485
485 486
486 487
487 488
488 489
489 490
490 491
491 492
492 493
493 494
494 495
495 496
496 497
497 498
498 499
499 500
500 501
502 503
503 504
504 505
505 506
506 507
507 508
508 509
509 510
510 511
511 512
512 513
513 514
514 515
515 516
516 517
517 518
518 519
519 520
520 521
521 522
522 523
523 524
524 525
525 526
526 527
527 528
528 529
529 530
530 531
531 532
532 533
533 534
534 535
535 536
536 537
537 538
538 539
539 540
540 541
542 543
543 544
545 546
546 547
547 548
548 549
549 550
550 551
551 552
552 553
553 554
554 555
555 556
556 557
557 558
558 559
559 560
560 561
561 562
562 563
564 565
565 566
566 567
567 568
568 569
569 570
570 571
571 572
572 573
573 574
574 575
575 576
576 577
577 578
578 579
579 580
580 581
581 582
582 583
583 584
584 585
585 586
586 587
587 588
588 589
589 590
590 591
591 592
592 593
593 594
594 595
595 596
596 597
597 598
598 599
599 600
600 601
601 602
602 603
603 604
604 605
605 606
606 607
607 608
608 609
609 610
610 611
611 612
612 613
613 614
614 615
615 616
616 617
617 618
618 619
619 620
620 621
621 622
622 623
623 624
624 625
625 626
626 627
627 628
628 629
629 630
630 631
631 632
632 633
633 634
634 635
635 636
636 637
637 638
638 639
639 640
640 641
641 642
642 643
643 644
644 645
645 646
646 647
647 648
648 649
649 650
650 651
651 652
652 653
653 654
654 655
655 656
656 657
657 658
658 659
659 660
660 661
661 662
662 663
663 664
664 665
665 666
666 667
667 668
668 669
669 670
670 671
671 672
672 673
673 674
674 675
675 676
676 677
677 678
678 679
679 680
680 681
681 682
682 683
683 684
684 685
685 686
686 687
687 688
688 689
690 691
691 692
693 694
694 695
695 696
696 697
697 698
698 699
699 700
700 701
701 702
702 703
703 704
704 705
705 706
706 707
707 708
708 709
709 710
710 711
711 712
712 713
713 714
714 715
715 716
716 717
717 718
718 719
719 720
720 721
721 722
722 723
723 724
724 725
725 726
726 727
727 728
728 729
729 730
730 731
731 732
732 733
733 734
734 735
735 736
736 737
737 738
738 739
739 740
740 741
741 742
742 743
743 744
744 745
745 746
746 747
747 748
748 749
749 750
751 752
752 753
753 754
754 755
755 756
756 757
757 758
758 759
759 760
760 761
761 762
762 763
763 764
764 765
765 766
766 767
767 768
769 770
770 771
771 772
772 773
773 774
774 775
775 776
776 777
777 778
778 779
779 780
780 781
781 782
782 783
783 784
784 785
785 786
786 787
787 788
788 789
789 790
790 791
791 792
792 793
793 794
794 795
795 796
796 797
797 798
798 799
799 800
800 801
801 802
802 803
803 804
804 805
805 806
806 807
807 808
808 809
809 810
810 811
811 812
812 813
813 814
814 815
815 816
816 817
817 818
818 819
819 820
820 821
821 822
822 823
823 824
824 825
825 826
826 827
827 828
828 829
829 830
830 831
831 832
832 833
833 834
834 835
835 836
836 837
837 838
838 839
839 840
840 841
841 842
842 843
843 844
844 845
845 846
846 847
847 848
848 849
849 850
850 851
851 852
852 853
854 855
855 856
856 857
857 858
858 859
859 860
860 861
861 862
862 863
863 864
864 865
865 866
866 867
867 868
868 869
869 870
870 871
871 872
872 873
873 874
874 875
875 876
876 877
877 878
878 879
879 880
880 881
881 882
882 883
883 884
884 885
885 886
886 887
887 888
888 889
889 890
890 891
891 892
892 893
893 894
894 895
895 896
896 897
897 898
898 899
899 900
900 901
901 902
902 903
903 904
904 905
905 906
906 907
907 908
908 909
909 910
910 911
911 912
912 913
913 914
914 915
915 916
916 917
917 918
918 919
919 920
920 921
921 922
922 923
924 925
925 926
